c A SAT instance generated from a 3-CNF formula that had 27 clauses and 9 variables
p cnf 9 27
9 -5 -3 0
1 6 4 0
-3 -8 2 0
5 6 -9 0
-8 -7 -2 0
5 9 -1 0
-5 -7 -9 0
5 -7 -4 0
-7 8 1 0
-3 -2 5 0
8 -6 4 0
2 -5 -6 0
1 8 4 0
1 -5 -4 0
-2 -3 -7 0
5 6 4 0
8 6 -1 0
-2 1 9 0
6 9 5 0
-4 -2 1 0
9 -4 -2 0
-7 4 -9 0
-5 4 8 0
-6 -5 -8 0
-3 8 1 0
5 -2 1 0
-8 9 -6 0
